140
100000
15754
10846
3273
11303
27246
43316
29062
13828
25454
19857
29569
49606
27599
8770
19
4815
25440
10961
17698
6505
1027
12321
4059
1230
41166
29551
24981
3288
14555
27828
39254
25149
9946
22980
1164
1591
30542
6665
20812
12779
16118
8994
34429
38145
46703
31245
9114
18396
2004
25673
5894
9981
10252
3239
7080
10551
46347
4719
27202
44609
45098
2735
18091
26662
36526
8409
27356
35654
36710
25635
31069
13287
25106
32896
2769
9715
11242
12665
18077
43389
5958
18609
4636
8488
10555
47471
21163
45283
1143
31093
13916
2217
925
28938
36640
13223
8546
23408
36701
17870
24886
40381
25567
39
21429
46529
13160
28794
9493
48727
18390
21989
39117
1263
46032
27732
40869
27551
29889
41448
35629
11155
29428
6194
45371
25935
44273
40351
38493
13791
19573
29793
20387
23590
2815
16765
12155
32338
21351
24950
